&control
    calculation = 'scf'
    restart_mode = 'from_scratch'
    prefix = 'Ptbulk'
    tstress = .false.
    tprnfor = .false.
    pseudo_dir = './pseudo/'
    outdir = './'
/
&system
    ibrav = 2
    celldm(1) = 7.342
    nat = 1
    ntyp = 1
    ecutwfc = 170.0
    input_dft='BEEF-vdW'
    occupations='smearing'
    smearing='gaussian'
    degauss=0.02
/
&electrons
    diagonalization = 'cg'
    mixing_mode = 'plain'
    mixing_beta = 0.7
    conv_thr = 1.0d-9
/
ATOMIC_SPECIES
    Pt 195.078 Pt.pbe-n-rrkjus_psl.1.0.0.UPF

ATOMIC_POSITIONS {crystal}
    Pt 0.00    0.00    0.00
K_POINTS {automatic}
    8 8 8 0 0 0
